\ENCODING=ISO-8859-1
\Problem name: 

Maximize
 obj: x1 + x2 + x3 + x4 + x5 + x6 + x7 + x8 + x9 + x10 + x11 + x12 + x13 + x14
      + x15 + x16 + x17 + x18 + x19 + x20 + x21 + x22 + x23 + x24 + x25 + x26
      + x27 + x28 + x29 + x30 + x31 + x32 + x33 + x34 + x35 + x36 + x37 + x38
      + x39 + x40 + x41 + x42 + x43 + x44 + x45 + x46 + x47 + x48 + x49 + x50
      + x51 + x52 + x53 + x54 + x55 + x56 + x57 + x58 + x59 + x60 + x61 + x62
      + x63 + x64 + x65 + x66 + x67 + x68 + x69 + x70 + x71 + x72 + x73 + x74
      + x75 + x76 + x77 + x78 + x79 + x80 + x81 + x82 + x83 + x84 + x85 + x86
      + x87 + x88 + x89 + x90 + x91 + x92 + x93 + x94 + x95 + x96 + x97 + x98
      + x99 + x100 + x101 + x102 + x103 + x104 + x105 + x106 + x107 + x108
      + x109 + x110 + x111 + x112 + x113 + x114 + x115 + x116 + x117 + x118
      + x119 + x120 + x121 + x122 + x123 + x124 + x125 + x126 + x127 + x128
      + x129 + x130 + x131 + x132 + x133 + x134 + x135 + x136 + x137 + x138
      + x139 + x140 + x141 + x142 + x143 + x144 + x145 + x146 + x147 + x148
      + x149 + x150 + x151 + x152 + x153 + x154 + x155 + x156 + x157 + x158
      + x159 + x160 + x161 + x162 + x163 + x164 + x165 + x166 + x167 + x168
      + x169 + x170 + x171 + x172 + x173 + x174 + x175 + x176 + x177 + x178
      + x179 + x180 + x181 + x182 + x183 + x184 + x185 + x186 + x187 + x188
      + x189 + x190 + x191 + x192 + x193 + x194 + x195 + x196 + x197 + x198
      + x199 + x200
Subject To
 clq1:    x94 + x123 <= 1
 clq2:    x10 + x19 + x70 + x198 <= 1
 clq3:    x21 + x73 + x194 <= 1
 clq4:    x61 + x135 + x167 <= 1
 clq5:    x75 + x92 + x119 <= 1
 clq6:    x133 + x135 + x192 <= 1
 clq7:    x40 + x74 + x121 <= 1
 clq8:    x15 + x16 + x72 <= 1
 clq9:    x77 + x88 + x90 <= 1
 clq10:   x4 + x158 + x171 <= 1
 clq11:   x93 + x113 + x138 <= 1
 clq12:   x52 + x128 + x196 <= 1
 clq13:   x79 + x169 <= 1
 clq14:   x32 + x52 + x100 <= 1
 clq15:   x115 + x121 + x127 <= 1
 clq16:   x69 + x142 + x170 <= 1
 clq17:   x138 + x175 <= 1
 clq18:   x18 + x69 + x141 <= 1
 clq19:   x25 + x49 + x137 <= 1
 clq20:   x100 + x116 + x140 <= 1
 clq21:   x49 + x144 + x172 <= 1
 clq22:   x35 + x106 + x144 <= 1
 clq23:   x64 + x149 + x155 <= 1
 clq24:   x4 + x10 + x145 <= 1
 clq25:   x24 + x57 + x155 <= 1
 clq26:   x57 + x65 + x155 <= 1
 clq27:   x75 + x172 <= 1
 clq28:   x55 + x100 <= 1
 clq29:   x29 + x169 + x197 <= 1
 clq30:   x2 + x11 + x49 + x89 <= 1
 clq31:   x31 + x97 + x143 <= 1
 clq32:   x56 + x177 <= 1
 clq33:   x7 + x113 + x179 <= 1
 clq34:   x17 + x32 + x156 <= 1
 clq35:   x42 + x198 <= 1
 clq36:   x27 + x59 + x198 <= 1
 clq37:   x86 + x93 <= 1
 clq38:   x46 + x142 <= 1
 clq39:   x98 + x136 + x180 <= 1
 clq40:   x9 + x184 <= 1
 clq41:   x88 + x128 <= 1
 clq42:   x59 + x184 + x198 <= 1
 clq43:   x4 + x44 + x90 <= 1
 clq44:   x24 + x64 + x155 <= 1
 clq45:   x77 + x139 + x168 <= 1
 clq46:   x38 + x139 + x166 <= 1
 clq47:   x91 + x154 + x174 <= 1
 clq48:   x86 + x127 <= 1
 clq49:   x121 + x195 <= 1
 clq50:   x154 + x188 <= 1
 clq51:   x57 + x117 + x129 <= 1
 clq52:   x103 + x115 <= 1
 clq53:   x43 + x51 + x55 <= 1
 clq54:   x83 + x101 + x150 <= 1
 clq55:   x5 + x28 + x105 <= 1
 clq56:   x19 + x96 <= 1
 clq57:   x75 + x111 + x189 <= 1
 clq58:   x45 + x48 + x103 <= 1
 clq59:   x66 + x93 <= 1
 clq60:   x72 + x104 + x125 <= 1
 clq61:   x9 + x48 + x103 <= 1
 clq62:   x24 + x29 <= 1
 clq63:   x25 + x151 + x185 <= 1
 clq64:   x16 + x106 + x144 <= 1
 clq65:   x70 + x91 + x157 <= 1
 clq66:   x90 + x112 <= 1
 clq67:   x5 + x84 + x128 <= 1
 clq68:   x82 + x129 + x164 + x167 <= 1
 clq69:   x1 + x49 + x76 <= 1
 clq70:   x46 + x58 + x141 <= 1
 clq71:   x19 + x107 + x135 <= 1
 clq72:   x27 + x48 + x51 <= 1
 clq73:   x97 + x150 + x153 <= 1
 clq74:   x7 + x20 + x42 <= 1
 clq75:   x37 + x68 <= 1
 clq76:   x39 + x63 + x126 <= 1
 clq77:   x78 + x190 <= 1
 clq78:   x49 + x115 + x127 <= 1
 clq79:   x82 + x133 + x134 <= 1
 clq80:   x84 + x122 + x187 <= 1
 clq81:   x70 + x107 + x172 <= 1
 clq82:   x95 + x113 <= 1
 clq83:   x9 + x120 <= 1
 clq84:   x116 + x138 <= 1
 clq85:   x15 + x22 + x130 <= 1
 clq86:   x81 + x139 + x168 <= 1
 clq87:   x71 + x85 + x123 <= 1
 clq88:   x61 + x176 <= 1
 clq89:   x42 + x61 + x112 <= 1
 clq90:   x86 + x151 + x173 <= 1
 clq91:   x82 + x139 <= 1
 clq92:   x71 + x139 + x152 <= 1
 clq93:   x98 + x168 + x193 <= 1
 clq94:   x23 + x153 <= 1
 clq95:   x10 + x131 + x189 <= 1
 clq96:   x18 + x20 + x41 <= 1
 clq97:   x7 + x87 <= 1
 clq98:   x20 + x26 + x113 <= 1
 clq99:   x121 + x178 <= 1
 clq100:  x98 + x160 + x180 <= 1
 clq101:  x136 + x139 <= 1
 clq102:  x72 + x88 + x104 <= 1
 clq103:  x20 + x41 + x42 <= 1
 clq104:  x46 + x109 + x147 <= 1
 clq105:  x48 + x122 + x181 <= 1
 clq106:  x50 + x77 <= 1
 clq107:  x27 + x29 + x49 <= 1
 clq108:  x6 + x62 + x70 <= 1
 clq109:  x44 + x68 <= 1
 clq110:  x29 + x98 <= 1
 clq111:  x16 + x52 + x148 <= 1
 clq112:  x3 + x83 + x101 <= 1
 clq113:  x16 + x72 + x148 <= 1
 clq114:  x4 + x14 + x144 + x161 <= 1
 clq115:  x111 + x145 + x196 <= 1
 clq116:  x67 + x171 + x184 <= 1
 clq117:  x19 + x58 + x130 <= 1
 clq118:  x39 + x109 <= 1
 clq119:  x3 + x72 + x104 <= 1
 clq120:  x34 + x80 + x118 <= 1
 clq121:  x9 + x170 <= 1
 clq122:  x71 + x123 + x156 <= 1
 clq123:  x54 + x91 + x133 + x174 <= 1
 clq124:  x61 + x110 + x167 <= 1
 clq125:  x94 + x109 <= 1
 clq126:  x12 + x17 + x64 <= 1
 clq127:  x62 + x76 + x135 <= 1
 clq128:  x116 + x145 <= 1
 clq129:  x96 + x140 + x152 <= 1
 clq130:  x122 + x184 <= 1
 clq131:  x5 + x71 <= 1
 clq132:  x61 + x112 + x156 + x168 <= 1
 clq133:  x22 + x117 + x130 <= 1
 clq134:  x7 + x56 <= 1
 clq135:  x34 + x165 + x189 <= 1
 clq136:  x113 + x158 + x166 <= 1
 clq137:  x35 + x69 + x170 <= 1
 clq138:  x80 + x113 + x158 <= 1
 clq139:  x136 + x178 <= 1
 clq140:  x36 + x119 + x129 <= 1
 clq141:  x53 + x58 + x141 <= 1
 clq142:  x165 + x168 + x193 <= 1
 clq143:  x72 + x133 + x185 <= 1
 clq144:  x82 + x129 + x165 <= 1
 clq145:  x3 + x48 + x127 <= 1
 clq146:  x52 + x54 + x148 <= 1
 clq147:  x37 + x62 + x116 <= 1
 clq148:  x38 + x98 + x110 <= 1
 clq149:  x124 + x152 + x197 <= 1
 clq150:  x6 + x70 + x163 <= 1
 clq151:  x15 + x28 + x37 <= 1
 clq152:  x34 + x125 + x139 <= 1
 clq153:  x111 + x158 + x189 <= 1
 clq154:  x20 + x40 + x69 <= 1
 clq155:  x47 + x101 + x179 <= 1
 clq156:  x159 + x170 <= 1
 clq157:  x142 + x153 <= 1
 clq158:  x19 + x106 + x130 <= 1
 clq159:  x33 + x91 + x176 <= 1
 clq160:  x13 + x90 + x137 <= 1
 clq161:  x1 + x76 + x98 <= 1
 clq162:  x159 + x161 <= 1
 clq163:  x132 + x156 + x167 <= 1
 clq164:  x44 + x60 + x200 <= 1
 clq165:  x34 + x65 + x139 <= 1
 clq166:  x89 + x94 + x143 <= 1
 clq167:  x32 + x74 + x121 <= 1
 clq168:  x140 + x176 <= 1
 clq169:  x108 + x152 + x197 <= 1
 clq170:  x57 + x66 + x171 <= 1
 clq171:  x18 + x69 + x99 <= 1
 clq172:  x122 + x138 + x187 <= 1
 clq173:  x51 + x76 <= 1
 clq174:  x57 + x161 <= 1
 clq175:  x68 + x184 <= 1
 clq176:  x10 + x131 + x181 <= 1
 clq177:  x72 + x187 <= 1
 clq178:  x2 + x140 + x190 <= 1
 clq179:  x140 + x147 <= 1
 clq180:  x36 + x55 + x112 <= 1
 clq181:  x6 + x33 + x90 <= 1
 clq182:  x14 + x18 + x184 <= 1
 clq183:  x82 + x134 + x157 <= 1
 clq184:  x34 + x80 + x107 <= 1
 clq185:  x78 + x113 + x125 <= 1
 clq186:  x90 + x123 + x186 <= 1
 clq187:  x106 + x178 <= 1
 clq188:  x93 + x113 + x191 <= 1
 clq189:  x32 + x74 + x107 <= 1
 clq190:  x60 + x70 + x89 <= 1
 clq191:  x84 + x115 <= 1
 clq192:  x114 + x171 <= 1
 clq193:  x10 + x21 + x58 <= 1
 clq194:  x46 + x58 + x127 <= 1
 clq195:  x74 + x93 + x121 <= 1
 clq196:  x40 + x150 <= 1
 clq197:  x138 + x199 + x200 <= 1
 clq198:  x26 + x112 <= 1
 clq199:  x141 + x173 + x186 <= 1
 clq200:  x88 + x90 + x137 <= 1
 clq201:  x89 + x173 <= 1
 clq202:  x62 + x116 + x194 <= 1
 clq203:  x77 + x89 + x155 <= 1
 clq204:  x83 + x95 + x172 <= 1
 clq205:  x35 + x111 + x199 <= 1
 clq206:  x17 + x134 + x183 <= 1
 clq207:  x1 + x82 + x147 <= 1
 clq208:  x73 + x89 <= 1
 clq209:  x80 + x107 + x182 <= 1
 clq210:  x59 + x154 <= 1
 clq211:  x17 + x187 <= 1
 clq212:  x80 + x101 + x121 <= 1
 clq213:  x69 + x166 <= 1
 clq214:  x16 + x118 <= 1
 clq215:  x132 + x150 + x167 <= 1
 clq216:  x79 + x88 + x183 <= 1
 clq217:  x31 + x41 + x57 <= 1
 clq218:  x133 + x168 + x185 <= 1
 clq219:  x131 + x170 + x190 <= 1
 clq220:  x55 + x65 <= 1
 clq221:  x10 + x12 + x72 <= 1
 clq222:  x103 + x194 <= 1
 clq223:  x137 + x171 + x172 <= 1
 clq224:  x28 + x101 <= 1
 clq225:  x8 + x57 + x65 <= 1
 clq226:  x5 + x149 + x161 <= 1
 clq227:  x69 + x162 + x195 <= 1
 clq228:  x35 + x63 + x64 + x155 <= 1
 clq229:  x16 + x72 + x104 <= 1
 clq230:  x71 + x184 <= 1
 clq231:  x1 + x68 + x147 <= 1
 clq232:  x128 + x199 <= 1
 clq233:  x60 + x170 + x187 <= 1
 clq234:  x100 + x131 <= 1
 clq235:  x28 + x97 + x189 <= 1
 clq236:  x1 + x33 + x179 <= 1
 clq237:  x36 + x116 <= 1
 clq238:  x39 + x41 + x165 <= 1
 clq239:  x82 + x129 + x147 <= 1
 clq240:  x45 + x61 + x168 <= 1
 clq241:  x21 + x143 <= 1
 clq242:  x81 + x125 + x139 <= 1
 clq243:  x79 + x158 + x172 <= 1
 clq244:  x109 + x160 + x166 <= 1
 clq245:  x100 + x110 + x191 <= 1
 clq246:  x49 + x130 + x200 <= 1
 clq247:  x16 + x98 + x173 <= 1
 clq248:  x58 + x115 + x127 <= 1
 clq249:  x67 + x133 + x148 <= 1
 clq250:  x33 + x84 <= 1
 clq251:  x24 + x34 + x80 <= 1
 clq252:  x123 + x127 + x189 <= 1
 clq253:  x79 + x86 + x173 <= 1
 clq254:  x56 + x117 <= 1
 clq255:  x107 + x135 + x165 <= 1
 clq256:  x38 + x88 + x90 <= 1
 clq257:  x51 + x137 <= 1
 clq258:  x91 + x130 + x198 <= 1
 clq259:  x73 + x92 + x189 <= 1
 clq260:  x8 + x92 <= 1
 clq261:  x1 + x112 + x124 <= 1
 clq262:  x65 + x132 + x182 <= 1
 clq263:  x131 + x170 + x174 <= 1
 clq264:  x119 + x122 + x185 <= 1
 clq265:  x37 + x142 <= 1
 clq266:  x18 + x96 + x109 <= 1
 clq267:  x38 + x67 + x154 <= 1
 clq268:  x123 + x127 + x191 <= 1
 clq269:  x66 + x197 <= 1
 clq270:  x14 + x48 + x78 <= 1
 clq271:  x46 + x148 + x195 <= 1
 clq272:  x132 + x151 + x167 <= 1
 clq273:  x14 + x36 + x119 <= 1
 clq274:  x103 + x175 <= 1
 clq275:  x98 + x120 + x134 <= 1
 clq276:  x25 + x178 <= 1
 clq277:  x3 + x56 + x62 <= 1
 clq278:  x68 + x143 <= 1
 clq279:  x112 + x189 <= 1
 clq280:  x126 + x128 + x165 <= 1
 clq281:  x45 + x136 + x180 <= 1
 clq282:  x7 + x23 + x185 <= 1
 clq283:  x78 + x125 + x139 <= 1
 clq284:  x55 + x84 + x187 <= 1
 clq285:  x36 + x94 + x114 <= 1
 clq286:  x35 + x141 + x173 <= 1
 clq287:  x60 + x147 <= 1
 clq288:  x84 + x144 <= 1
 clq289:  x4 + x14 + x78 <= 1
 clq290:  x4 + x10 + x147 <= 1
 clq291:  x21 + x37 + x98 + x173 <= 1
 clq292:  x10 + x117 + x145 <= 1
 clq293:  x15 + x141 + x173 <= 1
 clq294:  x154 + x174 + x177 <= 1
 clq295:  x98 + x120 + x161 <= 1
 clq296:  x40 + x159 <= 1
 clq297:  x34 + x65 + x98 <= 1
 clq298:  x17 + x48 + x169 <= 1
 clq299:  x117 + x166 <= 1
 clq300:  x151 + x176 <= 1
 clq301:  x21 + x27 + x132 <= 1
 clq302:  x54 + x142 <= 1
 clq303:  x11 + x45 + x177 <= 1
 clq304:  x127 + x189 + x199 <= 1
 clq305:  x4 + x65 + x67 <= 1
 clq306:  x41 + x88 + x132 <= 1
 clq307:  x49 + x115 + x162 <= 1
 clq308:  x61 + x93 + x109 <= 1
 clq309:  x77 + x131 <= 1
 clq310:  x99 + x108 + x132 <= 1
 clq311:  x34 + x148 + x164 <= 1
 clq312:  x57 + x76 <= 1
 clq313:  x89 + x94 + x126 <= 1
 clq314:  x35 + x119 + x188 <= 1
 clq315:  x23 + x24 + x141 + x144 <= 1
 clq316:  x13 + x69 + x172 <= 1
 clq317:  x17 + x53 + x97 <= 1
 clq318:  x143 + x166 <= 1
 clq319:  x13 + x80 + x127 <= 1
 clq320:  x90 + x143 + x146 + x164 <= 1
 clq321:  x34 + x68 + x139 <= 1
 clq322:  x76 + x158 + x189 <= 1
 clq323:  x45 + x103 + x124 + x136 <= 1
 clq324:  x31 + x200 <= 1
 clq325:  x72 + x103 + x185 <= 1
 clq326:  x1 + x103 + x124 <= 1
 clq327:  x21 + x93 + x109 + x132 <= 1
 clq328:  x13 + x69 + x197 <= 1
 clq329:  x39 + x99 + x116 <= 1
 clq330:  x70 + x133 + x148 <= 1
 clq331:  x29 + x191 <= 1
 clq332:  x128 + x140 + x190 <= 1
 clq333:  x2 + x27 + x192 <= 1
 clq334:  x13 + x28 + x105 <= 1
 clq335:  x57 + x155 + x174 <= 1
 clq336:  x10 + x121 + x185 <= 1
 clq337:  x115 + x121 + x163 <= 1
 clq338:  x3 + x22 + x104 <= 1
 clq339:  x19 + x32 + x107 <= 1
 clq340:  x188 + x198 <= 1
 clq341:  x26 + x110 <= 1
 clq342:  x100 + x119 + x140 <= 1
 clq343:  x5 + x80 <= 1
 clq344:  x160 + x166 + x180 <= 1
 clq345:  x11 + x38 + x116 <= 1
 clq346:  x23 + x125 <= 1
 clq347:  x151 + x174 <= 1
 clq348:  x82 + x84 + x157 <= 1
 clq349:  x30 + x184 <= 1
 clq350:  x37 + x59 + x137 <= 1
 clq351:  x92 + x116 <= 1
 clq352:  x27 + x185 + x186 <= 1
 clq353:  x26 + x53 + x58 <= 1
 clq354:  x13 + x90 + x99 <= 1
 clq355:  x2 + x43 + x125 + x159 <= 1
 clq356:  x86 + x94 + x126 <= 1
 clq357:  x108 + x130 + x200 <= 1
 clq358:  x15 + x69 + x141 <= 1
 clq359:  x68 + x157 <= 1
 clq360:  x14 + x81 <= 1
 clq361:  x64 + x162 <= 1
 clq362:  x39 + x63 + x196 <= 1
 clq363:  x2 + x134 + x180 <= 1
 clq364:  x11 + x20 + x102 <= 1
 clq365:  x32 + x100 + x141 <= 1
 clq366:  x98 + x161 + x180 + x198 <= 1
 clq367:  x84 + x122 + x146 <= 1
 clq368:  x57 + x70 + x91 + x163 <= 1
 clq369:  x135 + x199 <= 1
 clq370:  x56 + x102 <= 1
 clq371:  x28 + x145 + x198 <= 1
 clq372:  x13 + x169 + x197 <= 1
 clq373:  x77 + x103 <= 1
 clq374:  x79 + x178 <= 1
 clq375:  x123 + x150 + x189 <= 1
 clq376:  x29 + x89 + x143 <= 1
 clq377:  x4 + x10 + x162 <= 1
 clq378:  x59 + x156 <= 1
 clq379:  x43 + x125 + x139 <= 1
 clq380:  x14 + x157 <= 1
 clq381:  x10 + x11 + x71 <= 1
 clq382:  x105 + x132 + x150 <= 1
 clq383:  x75 + x81 <= 1
 clq384:  x100 + x140 + x146 <= 1
 clq385:  x43 + x162 + x195 <= 1
 clq386:  x11 + x169 + x197 <= 1
 clq387:  x28 + x52 + x54 <= 1
 clq388:  x40 + x69 + x76 <= 1
 clq389:  x86 + x126 + x128 <= 1
 clq390:  x97 + x129 + x143 <= 1
 clq391:  x122 + x156 <= 1
 clq392:  x30 + x133 + x189 <= 1
 clq393:  x133 + x168 + x174 <= 1
 clq394:  x13 + x24 + x74 <= 1
 clq395:  x12 + x145 + x196 <= 1
 clq396:  x120 + x151 + x167 <= 1
 clq397:  x22 + x36 + x155 <= 1
 clq398:  x18 + x111 + x168 <= 1
 clq399:  x92 + x115 <= 1
 clq400:  x39 + x63 + x116 <= 1
 clq401:  x37 + x133 + x180 <= 1
 clq402:  x86 + x118 <= 1
 clq403:  x18 + x95 + x130 <= 1
 clq404:  x94 + x105 <= 1
 clq405:  x88 + x127 + x152 <= 1
 clq406:  x123 + x171 + x181 <= 1
 clq407:  x18 + x103 <= 1
 clq408:  x104 + x200 <= 1
 clq409:  x46 + x122 + x187 <= 1
 clq410:  x89 + x94 + x102 <= 1
 clq411:  x11 + x99 + x116 <= 1
 clq412:  x72 + x104 + x185 <= 1
 clq413:  x106 + x180 + x196 <= 1
 clq414:  x79 + x80 + x103 <= 1
 clq415:  x31 + x36 <= 1
 clq416:  x6 + x193 <= 1
 clq417:  x13 + x78 + x127 <= 1
 clq418:  x59 + x78 + x96 <= 1
 clq419:  x2 + x72 + x88 <= 1
 clq420:  x38 + x94 <= 1
 clq421:  x63 + x187 <= 1
 clq422:  x30 + x111 + x187 <= 1
 clq423:  x150 + x161 + x180 <= 1
 clq424:  x21 + x81 + x96 <= 1
 clq425:  x60 + x71 + x134 <= 1
 clq426:  x99 + x116 + x167 <= 1
 clq427:  x45 + x63 + x101 <= 1
 clq428:  x46 + x51 + x174 <= 1
 clq429:  x35 + x100 + x111 <= 1
 clq430:  x55 + x88 <= 1
 clq431:  x143 + x164 + x182 <= 1
 clq432:  x4 + x78 + x142 <= 1
 clq433:  x158 + x175 <= 1
 clq434:  x15 + x69 + x195 <= 1
 clq435:  x42 + x78 + x100 <= 1
 clq436:  x140 + x173 <= 1
 clq437:  x1 + x6 + x163 <= 1
 clq438:  x103 + x136 + x146 <= 1
 clq439:  x43 + x45 + x51 <= 1
 clq440:  x66 + x80 + x182 <= 1
 clq441:  x1 + x49 + x137 + x172 <= 1
 clq442:  x11 + x174 + x177 <= 1
 clq443:  x1 + x27 + x49 <= 1
 clq444:  x67 + x170 + x175 <= 1
 clq445:  x7 + x106 <= 1
 clq446:  x15 + x16 + x17 + x48 <= 1
 clq447:  x118 + x174 + x177 <= 1
 clq448:  x47 + x72 + x133 <= 1
 clq449:  x37 + x98 + x180 <= 1
 clq450:  x14 + x22 + x36 <= 1
 clq451:  x76 + x86 + x135 <= 1
 clq452:  x88 + x98 + x183 <= 1
 clq453:  x81 + x94 <= 1
 clq454:  x53 + x149 <= 1
 clq455:  x81 + x137 + x168 <= 1
 clq456:  x30 + x78 + x107 <= 1
 clq457:  x5 + x58 <= 1
 clq458:  x4 + x50 <= 1
 clq459:  x61 + x110 + x191 <= 1
 clq460:  x47 + x101 + x169 <= 1
 clq461:  x2 + x81 + x134 <= 1
 clq462:  x41 + x176 + x183 <= 1
 clq463:  x31 + x41 + x146 <= 1
 clq464:  x75 + x143 + x146 <= 1
 clq465:  x29 + x85 + x165 <= 1
 clq466:  x60 + x78 + x139 <= 1
 clq467:  x46 + x176 + x183 <= 1
 clq468:  x97 + x132 + x150 <= 1
 clq469:  x38 + x95 <= 1
 clq470:  x48 + x85 + x145 <= 1
 clq471:  x81 + x181 <= 1
 clq472:  x8 + x147 <= 1
 clq473:  x16 + x98 + x110 <= 1
 clq474:  x46 + x57 + x70 <= 1
 clq475:  x86 + x197 <= 1
 clq476:  x36 + x96 + x112 <= 1
 clq477:  x17 + x48 + x53 <= 1
 clq478:  x4 + x90 + x160 <= 1
 clq479:  x87 + x114 <= 1
 clq480:  x54 + x83 <= 1
 clq481:  x62 + x96 <= 1
 clq482:  x9 + x116 <= 1
 clq483:  x4 + x44 + x79 <= 1
 clq484:  x98 + x149 + x181 <= 1
 clq485:  x125 + x149 <= 1
 clq486:  x83 + x105 + x140 <= 1
 clq487:  x46 + x96 + x195 <= 1
 clq488:  x113 + x122 + x138 <= 1
 clq489:  x5 + x77 + x105 <= 1
 clq490:  x91 + x97 + x170 <= 1
 clq491:  x12 + x21 + x93 <= 1
 clq492:  x38 + x67 + x148 <= 1
 clq493:  x3 + x144 <= 1
 clq494:  x54 + x60 <= 1
 clq495:  x49 + x89 + x137 <= 1
 clq496:  x167 + x169 <= 1
 clq497:  x89 + x108 + x152 <= 1
 clq498:  x50 + x116 <= 1
 clq499:  x52 + x96 <= 1
 clq500:  x83 + x97 + x150 <= 1
 clq501:  x29 + x32 + x107 + x165 <= 1
 clq502:  x123 + x163 + x191 <= 1
 clq503:  x17 + x78 + x113 <= 1
 clq504:  x30 + x48 + x93 <= 1
 clq505:  x128 + x182 <= 1
 clq506:  x25 + x197 <= 1
 clq507:  x118 + x186 <= 1
 clq508:  x7 + x43 + x51 <= 1
 clq509:  x34 + x59 + x137 <= 1
 clq510:  x21 + x158 + x172 <= 1
 clq511:  x108 + x118 + x130 <= 1
 clq512:  x123 + x127 + x183 <= 1
 clq513:  x67 + x123 + x127 <= 1
 clq514:  x85 + x123 + x183 <= 1
 clq515:  x43 + x53 <= 1
 clq516:  x18 + x37 <= 1
 clq517:  x27 + x37 + x84 <= 1
 clq518:  x19 + x70 + x107 <= 1
 clq519:  x113 + x152 + x166 <= 1
 clq520:  x6 + x100 <= 1
 clq521:  x56 + x200 <= 1
 clq522:  x30 + x110 <= 1
 clq523:  x115 + x127 + x183 <= 1
 clq524:  x75 + x162 <= 1
 clq525:  x92 + x118 <= 1
 clq526:  x63 + x65 + x195 <= 1
 clq527:  x133 + x168 + x192 <= 1
 clq528:  x33 + x65 + x124 <= 1
 clq529:  x29 + x53 + x58 <= 1
 clq530:  x119 + x141 + x185 + x186 <= 1
 clq531:  x76 + x100 + x191 <= 1
 clq532:  x101 + x151 <= 1
 clq533:  x16 + x98 + x175 <= 1
 clq534:  x21 + x55 + x194 <= 1
 clq535:  x1 + x49 + x130 <= 1
 clq536:  x84 + x87 + x187 <= 1
 clq537:  x16 + x102 + x157 <= 1
 clq538:  x22 + x42 + x104 <= 1
 clq539:  x91 + x170 + x174 <= 1
 clq540:  x7 + x12 <= 1
 clq541:  x11 + x71 + x156 <= 1
 clq542:  x29 + x126 + x200 <= 1
 clq543:  x4 + x41 + x83 <= 1
 clq544:  x12 + x36 + x170 <= 1
 clq545:  x72 + x73 <= 1
 clq546:  x105 + x150 + x180 <= 1
 clq547:  x99 + x115 <= 1
 clq548:  x12 + x14 + x18 <= 1
 clq549:  x16 + x17 + x148 <= 1
 clq550:  x26 + x86 + x129 <= 1
 clq551:  x80 + x118 + x120 + x167 <= 1
 clq552:  x16 + x50 <= 1
 clq553:  x21 + x109 + x173 <= 1
 clq554:  x11 + x132 + x156 <= 1
 clq555:  x49 + x52 + x89 <= 1
 clq556:  x64 + x85 <= 1
 clq557:  x45 + x141 <= 1
 clq558:  x122 + x154 <= 1
 clq559:  x1 + x97 + x163 <= 1
 clq560:  x30 + x90 + x143 + x155 <= 1
 clq561:  x81 + x129 + x141 <= 1
 clq562:  x17 + x64 + x113 <= 1
 clq563:  x3 + x72 + x95 <= 1
 clq564:  x44 + x49 + x79 <= 1
 clq565:  x14 + x86 <= 1
 clq566:  x139 + x166 + x168 <= 1
 clq567:  x4 + x101 + x161 <= 1
 clq568:  x69 + x122 + x172 <= 1
 clq569:  x85 + x119 + x129 <= 1
 clq570:  x41 + x57 + x85 <= 1
 clq571:  x64 + x142 <= 1
 clq572:  x18 + x101 <= 1
 clq573:  x22 + x80 + x118 <= 1
 clq574:  x61 + x69 + x93 <= 1
 clq575:  x115 + x133 <= 1
 clq576:  x20 + x69 + x162 <= 1
 clq577:  x70 + x168 + x198 <= 1
 clq578:  x26 + x37 <= 1
 clq579:  x33 + x138 + x199 <= 1
 clq580:  x9 + x82 <= 1
 clq581:  x49 + x69 + x172 <= 1
 clq582:  x29 + x49 + x89 <= 1
 clq583:  x191 + x196 <= 1
 clq584:  x61 + x126 + x135 <= 1
 clq585:  x44 + x87 + x196 <= 1
 clq586:  x18 + x25 <= 1
 clq587:  x60 + x130 + x187 <= 1
 clq588:  x58 + x141 + x178 <= 1
 clq589:  x131 + x174 + x177 <= 1
 clq590:  x6 + x27 + x29 <= 1
 clq591:  x37 + x61 + x84 <= 1
 clq592:  x82 + x133 + x174 <= 1
 clq593:  x13 + x181 <= 1
 clq594:  x37 + x59 + x73 <= 1
 clq595:  x2 + x159 + x192 <= 1
 clq596:  x73 + x87 + x196 <= 1
 clq597:  x42 + x169 <= 1
 clq598:  x19 + x58 + x75 <= 1
 clq599:  x83 + x138 <= 1
 clq600:  x62 + x93 <= 1
 clq601:  x25 + x70 + x163 <= 1
 clq602:  x52 + x171 + x181 <= 1
 clq603:  x72 + x153 <= 1
 clq604:  x68 + x199 <= 1
 clq605:  x41 + x42 + x75 + x146 <= 1
 clq606:  x52 + x71 + x103 <= 1
 clq607:  x17 + x64 + x156 <= 1
 clq608:  x80 + x100 + x134 <= 1
 clq609:  x115 + x162 + x196 <= 1
 clq610:  x13 + x119 + x186 <= 1
 clq611:  x3 + x62 + x101 <= 1
 clq612:  x55 + x148 + x161 <= 1
 clq613:  x22 + x59 + x160 <= 1
 clq614:  x60 + x188 + x200 <= 1
 clq615:  x32 + x88 + x90 <= 1
 clq616:  x22 + x163 + x185 <= 1
 clq617:  x5 + x151 <= 1
 clq618:  x44 + x118 <= 1
 clq619:  x83 + x124 + x152 <= 1
 clq620:  x19 + x87 + x174 <= 1
 clq621:  x20 + x144 + x161 <= 1
 clq622:  x3 + x131 + x174 <= 1
 clq623:  x14 + x39 + x106 <= 1
 clq624:  x102 + x136 + x148 <= 1
 clq625:  x10 + x21 + x131 <= 1
 clq626:  x59 + x173 + x187 <= 1
 clq627:  x157 + x159 <= 1
 clq628:  x63 + x143 + x155 <= 1
 clq629:  x17 + x101 + x169 <= 1
 clq630:  x79 + x109 + x172 <= 1
 clq631:  x8 + x169 <= 1
 clq632:  x3 + x95 + x180 <= 1
 clq633:  x87 + x120 + x196 <= 1
 clq634:  x44 + x153 + x195 <= 1
 clq635:  x81 + x118 <= 1
 clq636:  x163 + x172 + x191 <= 1
 clq637:  x28 + x32 + x145 <= 1
 clq638:  x59 + x97 + x153 <= 1
 clq639:  x52 + x92 + x136 <= 1
 clq640:  x29 + x71 + x85 <= 1
 clq641:  x56 + x62 + x143 + x178 <= 1
 clq642:  x13 + x31 + x172 <= 1
 clq643:  x49 + x95 + x130 <= 1
 clq644:  x42 + x61 + x146 <= 1
 clq645:  x42 + x136 + x146 <= 1
 clq646:  x27 + x99 + x157 <= 1
 clq647:  x114 + x183 <= 1
 clq648:  x127 + x154 + x180 <= 1
 clq649:  x169 + x176 <= 1
 clq650:  x3 + x60 + x123 <= 1
 clq651:  x29 + x81 + x169 <= 1
 clq652:  x118 + x167 + x177 <= 1
 clq653:  x117 + x144 + x172 <= 1
 clq654:  x4 + x41 + x183 <= 1
 clq655:  x8 + x35 + x64 <= 1
 clq656:  x63 + x112 + x128 <= 1
 clq657:  x10 + x159 + x173 <= 1
 clq658:  x3 + x83 + x131 + x190 <= 1
 clq659:  x30 + x133 + x148 <= 1
 clq660:  x51 + x78 + x174 <= 1
 clq661:  x19 + x66 + x181 <= 1
 clq662:  x82 + x90 + x141 + x186 <= 1
 clq663:  x1 + x124 + x197 <= 1
 clq664:  x77 + x155 + x169 <= 1
 clq665:  x41 + x88 + x146 + x183 <= 1
 clq666:  x13 + x90 + x186 <= 1
 clq667:  x9 + x48 + x169 <= 1
 clq668:  x80 + x113 + x118 + x120 <= 1
 clq669:  x16 + x43 + x162 <= 1
 clq670:  x97 + x110 + x163 <= 1
 clq671:  x93 + x113 + x168 <= 1
 clq672:  x97 + x106 <= 1
 clq673:  x29 + x89 + x195 <= 1
 clq674:  x57 + x155 + x179 <= 1
 clq675:  x45 + x89 + x126 <= 1
 clq676:  x58 + x67 + x118 <= 1
 clq677:  x1 + x82 + x124 <= 1
 clq678:  x4 + x161 + x180 <= 1
 clq679:  x11 + x49 + x144 <= 1
 clq680:  x105 + x121 <= 1
 clq681:  x101 + x139 + x161 <= 1
 clq682:  x163 + x184 + x191 <= 1
 clq683:  x14 + x18 + x87 <= 1
 clq684:  x36 + x96 + x150 + x170 <= 1
 clq685:  x51 + x120 <= 1
 clq686:  x16 + x110 + x162 <= 1
 clq687:  x27 + x44 + x49 <= 1
 clq688:  x113 + x118 + x191 <= 1
 clq689:  x40 + x74 + x81 <= 1
 clq690:  x25 + x68 + x139 <= 1
 clq691:  x110 + x125 <= 1
 clq692:  x6 + x33 + x65 <= 1
 clq693:  x31 + x102 <= 1
 clq694:  x138 + x171 <= 1
 clq695:  x8 + x23 <= 1
 clq696:  x159 + x164 <= 1
 clq697:  x2 + x72 + x125 <= 1
 clq698:  x50 + x174 <= 1
 clq699:  x27 + x29 + x192 <= 1
 clq700:  x47 + x154 + x174 <= 1
 clq701:  x6 + x75 <= 1
 clq702:  x61 + x126 + x128 <= 1
 clq703:  x94 + x106 <= 1
 clq704:  x33 + x86 + x173 <= 1
 clq705:  x78 + x121 + x129 <= 1
 clq706:  x52 + x92 + x193 <= 1
 clq707:  x1 + x108 + x130 <= 1
 clq708:  x122 + x133 + x185 <= 1
 clq709:  x16 + x102 + x148 <= 1
 clq710:  x106 + x127 + x180 <= 1
 clq711:  x15 + x108 + x193 <= 1
 clq712:  x22 + x125 + x130 <= 1
 clq713:  x38 + x88 + x98 <= 1
 clq714:  x1 + x98 + x181 <= 1
 clq715:  x26 + x194 <= 1
 clq716:  x21 + x81 + x139 <= 1
 clq717:  x25 + x30 + x126 <= 1
 clq718:  x105 + x140 + x146 <= 1
 clq719:  x15 + x81 + x137 <= 1
 clq720:  x108 + x146 + x183 <= 1
 clq721:  x33 + x65 + x86 <= 1
 clq722:  x10 + x167 <= 1
 clq723:  x51 + x156 <= 1
 clq724:  x63 + x132 + x181 <= 1
 clq725:  x68 + x121 + x149 <= 1
 clq726:  x63 + x66 + x181 <= 1
 clq727:  x8 + x96 <= 1
 clq728:  x55 + x135 + x148 <= 1
 clq729:  x12 + x64 + x175 <= 1
 clq730:  x8 + x37 + x191 <= 1
 clq731:  x21 + x27 + x185 <= 1
 clq732:  x19 + x130 + x200 <= 1
 clq733:  x77 + x169 + x197 <= 1
 clq734:  x69 + x125 + x142 <= 1
 clq735:  x111 + x136 <= 1
 clq736:  x10 + x86 + x147 <= 1
 clq737:  x36 + x158 + x164 <= 1
 clq738:  x14 + x48 + x53 <= 1
 clq739:  x87 + x175 <= 1
 clq740:  x92 + x101 <= 1
 clq741:  x15 + x137 + x171 <= 1
 clq742:  x26 + x113 + x152 <= 1
 clq743:  x15 + x92 + x132 <= 1
 clq744:  x61 + x106 <= 1
 clq745:  x13 + x56 + x169 <= 1
 clq746:  x51 + x63 + x128 <= 1
 clq747:  x47 + x141 + x186 <= 1
 clq748:  x47 + x196 <= 1
 clq749:  x51 + x73 <= 1
 clq750:  x106 + x158 + x164 <= 1
 clq751:  x61 + x156 + x167 <= 1
 clq752:  x34 + x56 <= 1
 clq753:  x15 + x48 + x92 <= 1
 clq754:  x22 + x47 + x175 <= 1
 clq755:  x60 + x70 + x114 <= 1
 clq756:  x119 + x179 <= 1
 clq757:  x113 + x147 <= 1
 clq758:  x33 + x91 + x138 <= 1
 clq759:  x24 + x152 <= 1
 clq760:  x62 + x178 + x190 <= 1
 clq761:  x85 + x123 + x189 <= 1
 clq762:  x39 + x48 + x103 <= 1
 clq763:  x16 + x47 + x175 <= 1
 clq764:  x31 + x173 <= 1
 clq765:  x42 + x187 <= 1
 clq766:  x24 + x141 + x155 <= 1
 clq767:  x65 + x74 <= 1
 clq768:  x2 + x158 + x190 <= 1
 clq769:  x59 + x96 + x192 <= 1
 clq770:  x54 + x87 + x91 + x174 <= 1
 clq771:  x68 + x193 <= 1
 clq772:  x69 + x122 + x193 <= 1
 clq773:  x100 + x150 <= 1
 clq774:  x23 + x101 <= 1
 clq775:  x15 + x56 <= 1
 clq776:  x67 + x127 + x199 <= 1
 clq777:  x117 + x193 <= 1
 clq778:  x76 + x95 + x132 <= 1
 clq779:  x59 + x163 + x184 <= 1
 clq780:  x89 + x149 + x161 <= 1
 clq781:  x1 + x50 <= 1
 clq782:  x36 + x150 + x155 <= 1
 clq783:  x178 + x179 <= 1
 clq784:  x34 + x164 + x189 <= 1
 clq785:  x40 + x45 + x48 <= 1
 clq786:  x61 + x84 + x128 <= 1
 clq787:  x107 + x152 <= 1
 clq788:  x27 + x47 + x65 <= 1
 clq789:  x60 + x78 + x186 <= 1
 clq790:  x41 + x89 + x155 <= 1
 clq791:  x33 + x86 + x149 <= 1
 clq792:  x21 + x98 + x149 + x161 <= 1
 clq793:  x82 + x117 + x141 + x186 <= 1
 clq794:  x39 + x48 + x122 <= 1
 clq795:  x38 + x98 + x120 <= 1
 clq796:  x34 + x151 + x164 <= 1
 clq797:  x62 + x104 + x143 + x178 <= 1
 clq798:  x23 + x135 + x144 <= 1
 clq799:  x15 + x30 + x126 <= 1
 clq800:  x104 + x195 <= 1
 clq801:  x86 + x135 + x147 <= 1
 clq802:  x22 + x118 + x130 <= 1
 clq803:  x55 + x149 + x176 <= 1
 clq804:  x51 + x124 + x152 <= 1
 clq805:  x188 + x197 <= 1
 clq806:  x60 + x71 + x123 + x186 <= 1
 clq807:  x42 + x147 + x196 <= 1
 clq808:  x36 + x55 + x149 + x161 <= 1
 clq809:  x66 + x181 + x182 <= 1
 clq810:  x83 + x97 + x140 <= 1
 clq811:  x151 + x162 <= 1
 clq812:  x47 + x70 + x97 <= 1
 clq813:  x41 + x85 + x165 <= 1
 clq814:  x23 + x98 <= 1
 clq815:  x69 + x172 + x195 <= 1
 clq816:  x111 + x189 + x199 <= 1
 clq817:  x32 + x121 + x156 <= 1
 clq818:  x9 + x44 + x48 <= 1
 clq819:  x31 + x32 + x156 <= 1
 clq820:  x135 + x144 + x167 <= 1
 clq821:  x20 + x35 + x144 <= 1
 clq822:  x9 + x48 + x143 <= 1
 clq823:  x10 + x15 + x131 <= 1
 clq824:  x82 + x96 + x175 <= 1
 clq825:  x12 + x128 + x196 <= 1
 clq826:  x132 + x171 + x181 <= 1
 clq827:  x109 + x132 + x166 <= 1
 clq828:  x8 + x41 + x57 <= 1
 clq829:  x2 + x43 + x162 <= 1
 clq830:  x36 + x128 + x155 <= 1
 clq831:  x58 + x63 <= 1
 clq832:  x92 + x124 + x136 <= 1
 clq833:  x100 + x119 + x141 + x185 <= 1
 clq834:  x73 + x117 + x144 <= 1
 clq835:  x15 + x108 + x132 <= 1
 clq836:  x10 + x12 + x200 <= 1
 clq837:  x63 + x126 + x181 <= 1
 clq838:  x118 + x120 + x188 <= 1
 clq839:  x90 + x160 + x179 <= 1
 clq840:  x1 + x33 + x137 <= 1
 clq841:  x63 + x70 + x133 <= 1
 clq842:  x32 + x76 + x86 + x103 <= 1
 clq843:  x87 + x123 + x127 <= 1
 clq844:  x45 + x124 + x136 + x157 <= 1
 clq845:  x14 + x131 + x184 <= 1
 clq846:  x151 + x164 + x167 <= 1
 clq847:  x19 + x35 + x181 <= 1
 clq848:  x32 + x139 <= 1
 clq849:  x35 + x100 + x141 + x144 <= 1
 clq850:  x49 + x52 + x127 <= 1
 clq851:  x92 + x158 + x189 <= 1
 clq852:  x39 + x41 + x176 <= 1
 clq853:  x13 + x80 + x120 + x196 <= 1
 clq854:  x16 + x146 <= 1
 clq855:  x30 + x35 + x155 <= 1
 clq856:  x140 + x181 <= 1
 clq857:  x82 + x107 + x157 <= 1
 clq858:  x159 + x166 <= 1
 clq859:  x10 + x43 + x139 <= 1
 clq860:  x7 + x133 + x185 <= 1
 clq861:  x17 + x44 + x49 + x200 <= 1
 clq862:  x61 + x93 + x168 <= 1
 clq863:  x7 + x43 + x179 <= 1
 clq864:  x15 + x48 + x85 <= 1
 clq865:  x31 + x142 <= 1
 clq866:  x59 + x153 + x173 <= 1
 clq867:  x43 + x92 <= 1
 clq868:  x13 + x80 + x90 <= 1
 clq869:  x155 + x179 + x192 <= 1
 clq870:  x46 + x174 + x187 <= 1
 clq871:  x6 + x7 + x27 <= 1
 clq872:  x10 + x43 + x162 <= 1
 clq873:  x23 + x156 + x197 <= 1
 clq874:  x16 + x63 + x128 <= 1
 clq875:  x126 + x181 + x185 <= 1
 clq876:  x54 + x91 + x166 <= 1
 clq877:  x25 + x40 + x45 <= 1
 clq878:  x33 + x56 <= 1
 clq879:  x6 + x39 <= 1
 clq880:  x1 + x107 + x172 <= 1
 clq881:  x61 + x135 + x191 <= 1
 clq882:  x99 + x148 + x175 <= 1
 clq883:  x73 + x171 <= 1
 clq884:  x11 + x71 + x85 <= 1
 clq885:  x59 + x136 <= 1
 clq886:  x48 + x179 <= 1
 clq887:  x12 + x196 + x200 <= 1
 clq888:  x77 + x85 <= 1
 clq889:  x83 + x126 <= 1
 clq890:  x53 + x158 <= 1
 clq891:  x51 + x91 + x174 <= 1
 clq892:  x165 + x170 <= 1
 clq893:  x93 + x121 + x144 <= 1
 clq894:  x62 + x181 <= 1
 clq895:  x28 + x125 <= 1
 clq896:  x102 + x121 + x163 <= 1
 clq897:  x32 + x120 <= 1
 clq898:  x20 + x41 + x113 <= 1
 clq899:  x59 + x97 + x170 <= 1
 clq900:  x14 + x49 + x144 <= 1
 clq901:  x24 + x54 + x133 <= 1
 clq902:  x82 + x90 + x164 <= 1
 clq903:  x95 + x108 + x132 <= 1
 clq904:  x29 + x95 + x131 <= 1
 clq905:  x13 + x24 + x80 <= 1
 clq906:  x15 + x91 + x130 <= 1
 clq907:  x66 + x189 <= 1
 clq908:  x17 + x97 + x189 <= 1
 clq909:  x39 + x104 + x143 <= 1
 clq910:  x77 + x99 + x178 <= 1
 clq911:  x166 + x169 <= 1
 clq912:  x12 + x36 + x128 <= 1
 clq913:  x5 + x62 + x70 <= 1
 clq914:  x76 + x82 + x104 <= 1
 clq915:  x9 + x65 + x155 <= 1
 clq916:  x10 + x23 + x70 <= 1
 clq917:  x19 + x79 <= 1
 clq918:  x152 + x162 <= 1
 clq919:  x64 + x83 <= 1
 clq920:  x31 + x143 + x178 <= 1
 clq921:  x30 + x43 <= 1
 clq922:  x32 + x72 + x88 <= 1
 clq923:  x4 + x144 + x183 <= 1
 clq924:  x22 + x59 + x170 <= 1
 clq925:  x2 + x19 <= 1
 clq926:  x93 + x140 + x148 <= 1
 clq927:  x59 + x66 <= 1
 clq928:  x53 + x88 <= 1
 clq929:  x54 + x94 <= 1
 clq930:  x157 + x188 <= 1
 clq931:  x120 + x189 <= 1
 clq932:  x117 + x144 + x183 <= 1
 clq933:  x82 + x129 + x198 <= 1
 clq934:  x22 + x47 + x130 <= 1
 clq935:  x23 + x137 <= 1
 clq936:  x26 + x159 <= 1
 clq937:  x49 + x115 + x190 <= 1
 clq938:  x54 + x148 + x195 <= 1
 clq939:  x133 + x158 + x189 <= 1
 clq940:  x8 + x33 + x65 <= 1
 clq941:  x145 + x176 <= 1
 clq942:  x125 + x142 + x184 <= 1
 clq943:  x26 + x185 <= 1
 clq944:  x44 + x69 + x195 <= 1
 clq945:  x9 + x143 + x155 <= 1
 clq946:  x26 + x145 + x184 <= 1
 clq947:  x94 + x113 + x126 <= 1
 clq948:  x14 + x67 + x184 <= 1
 clq949:  x102 + x138 <= 1
 clq950:  x42 + x58 + x75 <= 1
 clq951:  x5 + x147 <= 1
 clq952:  x75 + x128 <= 1
 clq953:  x5 + x14 + x161 <= 1
 clq954:  x27 + x37 + x59 <= 1
 clq955:  x44 + x90 + x194 <= 1
 clq956:  x10 + x15 + x173 <= 1
 clq957:  x2 + x8 + x159 <= 1
 clq958:  x16 + x57 + x72 <= 1
 clq959:  x109 + x137 + x172 <= 1
 clq960:  x157 + x171 + x177 <= 1
 clq961:  x3 + x41 + x62 <= 1
 clq962:  x91 + x160 + x166 <= 1
 clq963:  x67 + x148 + x193 <= 1
 clq964:  x73 + x92 + x182 <= 1
 clq965:  x35 + x78 + x113 <= 1
 clq966:  x33 + x131 + x179 <= 1
 clq967:  x16 + x59 + x192 <= 1
 clq968:  x43 + x169 + x197 <= 1
 clq969:  x81 + x96 + x170 <= 1
 clq970:  x8 + x200 <= 1
 clq971:  x82 + x90 + x157 <= 1
 clq972:  x15 + x92 + x173 <= 1
 clq973:  x61 + x108 + x174 <= 1
 clq974:  x39 + x177 <= 1
 clq975:  x61 + x69 + x146 <= 1
 clq976:  x140 + x156 <= 1
 clq977:  x12 + x160 + x196 <= 1
 clq978:  x110 + x122 + x193 <= 1
 clq979:  x30 + x150 + x155 <= 1
 clq980:  x47 + x65 + x195 <= 1
 clq981:  x5 + x95 <= 1
 clq982:  x50 + x96 + x152 <= 1
 clq983:  x46 + x141 + x199 <= 1
 clq984:  x45 + x102 + x136 + x157 <= 1
 clq985:  x19 + x68 <= 1
 clq986:  x145 + x171 + x184 <= 1
 clq987:  x80 + x120 + x134 <= 1
 clq988:  x36 + x55 + x114 <= 1
 clq989:  x12 + x100 <= 1
 clq990:  x58 + x118 + x177 <= 1
 clq991:  x76 + x87 <= 1
 clq992:  x25 + x42 + x164 <= 1
 clq993:  x91 + x125 + x130 <= 1
 clq994:  x40 + x67 + x77 <= 1
 clq995:  x47 + x130 + x157 <= 1
 clq996:  x50 + x141 <= 1
 clq997:  x140 + x155 + x177 <= 1
 clq998:  x34 + x179 <= 1
 clq999:  x151 + x181 + x185 <= 1
 clq1000: x15 + x30 + x48 + x108 <= 1
 clq1001: x29 + x154 <= 1
 clq1002: x32 + x72 + x103 <= 1
 clq1003: x52 + x85 + x136 <= 1
 clq1004: x139 + x152 + x166 <= 1
 clq1005: x48 + x114 <= 1
 clq1006: x45 + x71 + x103 <= 1
 clq1007: x81 + x99 <= 1
 clq1008: x103 + x144 <= 1
 clq1009: x21 + x91 <= 1
 clq1010: x3 + x83 + x123 <= 1
 clq1011: x137 + x150 + x172 <= 1
 clq1012: x89 + x101 + x122 <= 1
 clq1013: x28 + x105 + x111 + x145 <= 1
 clq1014: x40 + x60 + x124 <= 1
 clq1015: x42 + x171 <= 1
 clq1016: x122 + x133 + x135 <= 1
 clq1017: x62 + x173 + x194 <= 1
 clq1018: x88 + x127 + x183 <= 1
 clq1019: x49 + x138 + x200 <= 1
 clq1020: x36 + x158 + x166 <= 1
 clq1021: x42 + x75 + x186 <= 1
 clq1022: x156 + x159 <= 1
 clq1023: x6 + x94 <= 1
 clq1024: x24 + x42 + x75 <= 1
 clq1025: x10 + x147 + x189 <= 1
 clq1026: x34 + x39 + x196 <= 1
 clq1027: x82 + x96 + x157 <= 1
 clq1028: x35 + x181 + x188 <= 1
 clq1029: x74 + x102 + x121 <= 1
 clq1030: x14 + x112 + x156 <= 1
 clq1031: x62 + x184 + x190 <= 1
 clq1032: x80 + x118 + x121 <= 1
 clq1033: x78 + x125 + x194 <= 1
 clq1034: x1 + x147 + x196 <= 1
 clq1035: x24 + x38 <= 1
 clq1036: x26 + x145 + x182 <= 1
 clq1037: x172 + x192 <= 1
 clq1038: x23 + x24 + x141 + x185 <= 1
 clq1039: x31 + x143 + x146 <= 1
 clq1040: x79 + x156 <= 1
 clq1041: x3 + x159 <= 1
 clq1042: x5 + x175 <= 1
 clq1043: x84 + x85 + x180 <= 1
 clq1044: x98 + x168 + x198 <= 1
 clq1045: x28 + x52 + x198 <= 1
 clq1046: x17 + x40 + x77 <= 1
 clq1047: x23 + x39 <= 1
 clq1048: x4 + x61 <= 1
 clq1049: x61 + x84 + x85 <= 1
 clq1050: x68 + x169 <= 1
 clq1051: x72 + x85 + x119 <= 1
 clq1052: x63 + x126 + x128 <= 1
 clq1053: x7 + x133 + x148 <= 1
 clq1054: x46 + x195 + x198 <= 1
 clq1055: x51 + x110 + x153 <= 1
 clq1056: x28 + x57 + x105 <= 1
 clq1057: x50 + x191 <= 1
 clq1058: x33 + x90 + x137 + x176 <= 1
 clq1059: x109 + x139 + x166 <= 1
 clq1060: x54 + x116 + x167 <= 1
 clq1061: x13 + x138 <= 1
 clq1062: x12 + x70 + x84 <= 1
 clq1063: x26 + x148 <= 1
 clq1064: x16 + x18 + x128 <= 1
 clq1065: x79 + x80 + x109 <= 1
 clq1066: x12 + x45 <= 1
 clq1067: x59 + x114 <= 1
 clq1068: x69 + x71 <= 1
 clq1069: x52 + x128 + x165 <= 1
 clq1070: x20 + x36 + x162 <= 1
 clq1071: x158 + x164 + x190 <= 1
 clq1072: x48 + x78 + x127 <= 1
 clq1073: x58 + x83 + x152 <= 1
 clq1074: x2 + x81 + x125 <= 1
 clq1075: x13 + x56 + x156 <= 1
 clq1076: x19 + x70 + x119 <= 1
 clq1077: x1 + x82 + x167 <= 1
 clq1078: x28 + x51 <= 1
 clq1079: x82 + x141 + x199 <= 1
Bounds
 0 <= x1 <= 1
 0 <= x2 <= 1
 0 <= x3 <= 1
 0 <= x4 <= 1
 0 <= x5 <= 1
 0 <= x6 <= 1
 0 <= x7 <= 1
 0 <= x8 <= 1
 0 <= x9 <= 1
 0 <= x10 <= 1
 0 <= x11 <= 1
 0 <= x12 <= 1
 0 <= x13 <= 1
 0 <= x14 <= 1
 0 <= x15 <= 1
 0 <= x16 <= 1
 0 <= x17 <= 1
 0 <= x18 <= 1
 0 <= x19 <= 1
 0 <= x20 <= 1
 0 <= x21 <= 1
 0 <= x22 <= 1
 0 <= x23 <= 1
 0 <= x24 <= 1
 0 <= x25 <= 1
 0 <= x26 <= 1
 0 <= x27 <= 1
 0 <= x28 <= 1
 0 <= x29 <= 1
 0 <= x30 <= 1
 0 <= x31 <= 1
 0 <= x32 <= 1
 0 <= x33 <= 1
 0 <= x34 <= 1
 0 <= x35 <= 1
 0 <= x36 <= 1
 0 <= x37 <= 1
 0 <= x38 <= 1
 0 <= x39 <= 1
 0 <= x40 <= 1
 0 <= x41 <= 1
 0 <= x42 <= 1
 0 <= x43 <= 1
 0 <= x44 <= 1
 0 <= x45 <= 1
 0 <= x46 <= 1
 0 <= x47 <= 1
 0 <= x48 <= 1
 0 <= x49 <= 1
 0 <= x50 <= 1
 0 <= x51 <= 1
 0 <= x52 <= 1
 0 <= x53 <= 1
 0 <= x54 <= 1
 0 <= x55 <= 1
 0 <= x56 <= 1
 0 <= x57 <= 1
 0 <= x58 <= 1
 0 <= x59 <= 1
 0 <= x60 <= 1
 0 <= x61 <= 1
 0 <= x62 <= 1
 0 <= x63 <= 1
 0 <= x64 <= 1
 0 <= x65 <= 1
 0 <= x66 <= 1
 0 <= x67 <= 1
 0 <= x68 <= 1
 0 <= x69 <= 1
 0 <= x70 <= 1
 0 <= x71 <= 1
 0 <= x72 <= 1
 0 <= x73 <= 1
 0 <= x74 <= 1
 0 <= x75 <= 1
 0 <= x76 <= 1
 0 <= x77 <= 1
 0 <= x78 <= 1
 0 <= x79 <= 1
 0 <= x80 <= 1
 0 <= x81 <= 1
 0 <= x82 <= 1
 0 <= x83 <= 1
 0 <= x84 <= 1
 0 <= x85 <= 1
 0 <= x86 <= 1
 0 <= x87 <= 1
 0 <= x88 <= 1
 0 <= x89 <= 1
 0 <= x90 <= 1
 0 <= x91 <= 1
 0 <= x92 <= 1
 0 <= x93 <= 1
 0 <= x94 <= 1
 0 <= x95 <= 1
 0 <= x96 <= 1
 0 <= x97 <= 1
 0 <= x98 <= 1
 0 <= x99 <= 1
 0 <= x100 <= 1
 0 <= x101 <= 1
 0 <= x102 <= 1
 0 <= x103 <= 1
 0 <= x104 <= 1
 0 <= x105 <= 1
 0 <= x106 <= 1
 0 <= x107 <= 1
 0 <= x108 <= 1
 0 <= x109 <= 1
 0 <= x110 <= 1
 0 <= x111 <= 1
 0 <= x112 <= 1
 0 <= x113 <= 1
 0 <= x114 <= 1
 0 <= x115 <= 1
 0 <= x116 <= 1
 0 <= x117 <= 1
 0 <= x118 <= 1
 0 <= x119 <= 1
 0 <= x120 <= 1
 0 <= x121 <= 1
 0 <= x122 <= 1
 0 <= x123 <= 1
 0 <= x124 <= 1
 0 <= x125 <= 1
 0 <= x126 <= 1
 0 <= x127 <= 1
 0 <= x128 <= 1
 0 <= x129 <= 1
 0 <= x130 <= 1
 0 <= x131 <= 1
 0 <= x132 <= 1
 0 <= x133 <= 1
 0 <= x134 <= 1
 0 <= x135 <= 1
 0 <= x136 <= 1
 0 <= x137 <= 1
 0 <= x138 <= 1
 0 <= x139 <= 1
 0 <= x140 <= 1
 0 <= x141 <= 1
 0 <= x142 <= 1
 0 <= x143 <= 1
 0 <= x144 <= 1
 0 <= x145 <= 1
 0 <= x146 <= 1
 0 <= x147 <= 1
 0 <= x148 <= 1
 0 <= x149 <= 1
 0 <= x150 <= 1
 0 <= x151 <= 1
 0 <= x152 <= 1
 0 <= x153 <= 1
 0 <= x154 <= 1
 0 <= x155 <= 1
 0 <= x156 <= 1
 0 <= x157 <= 1
 0 <= x158 <= 1
 0 <= x159 <= 1
 0 <= x160 <= 1
 0 <= x161 <= 1
 0 <= x162 <= 1
 0 <= x163 <= 1
 0 <= x164 <= 1
 0 <= x165 <= 1
 0 <= x166 <= 1
 0 <= x167 <= 1
 0 <= x168 <= 1
 0 <= x169 <= 1
 0 <= x170 <= 1
 0 <= x171 <= 1
 0 <= x172 <= 1
 0 <= x173 <= 1
 0 <= x174 <= 1
 0 <= x175 <= 1
 0 <= x176 <= 1
 0 <= x177 <= 1
 0 <= x178 <= 1
 0 <= x179 <= 1
 0 <= x180 <= 1
 0 <= x181 <= 1
 0 <= x182 <= 1
 0 <= x183 <= 1
 0 <= x184 <= 1
 0 <= x185 <= 1
 0 <= x186 <= 1
 0 <= x187 <= 1
 0 <= x188 <= 1
 0 <= x189 <= 1
 0 <= x190 <= 1
 0 <= x191 <= 1
 0 <= x192 <= 1
 0 <= x193 <= 1
 0 <= x194 <= 1
 0 <= x195 <= 1
 0 <= x196 <= 1
 0 <= x197 <= 1
 0 <= x198 <= 1
 0 <= x199 <= 1
 0 <= x200 <= 1
Binaries
 x1  x2  x3  x4  x5  x6  x7  x8  x9  x10  x11  x12  x13  x14  x15  x16  x17 
 x18  x19  x20  x21  x22  x23  x24  x25  x26  x27  x28  x29  x30  x31  x32 
 x33  x34  x35  x36  x37  x38  x39  x40  x41  x42  x43  x44  x45  x46  x47 
 x48  x49  x50  x51  x52  x53  x54  x55  x56  x57  x58  x59  x60  x61  x62 
 x63  x64  x65  x66  x67  x68  x69  x70  x71  x72  x73  x74  x75  x76  x77 
 x78  x79  x80  x81  x82  x83  x84  x85  x86  x87  x88  x89  x90  x91  x92 
 x93  x94  x95  x96  x97  x98  x99  x100  x101  x102  x103  x104  x105  x106 
 x107  x108  x109  x110  x111  x112  x113  x114  x115  x116  x117  x118  x119 
 x120  x121  x122  x123  x124  x125  x126  x127  x128  x129  x130  x131  x132 
 x133  x134  x135  x136  x137  x138  x139  x140  x141  x142  x143  x144  x145 
 x146  x147  x148  x149  x150  x151  x152  x153  x154  x155  x156  x157  x158 
 x159  x160  x161  x162  x163  x164  x165  x166  x167  x168  x169  x170  x171 
 x172  x173  x174  x175  x176  x177  x178  x179  x180  x181  x182  x183  x184 
 x185  x186  x187  x188  x189  x190  x191  x192  x193  x194  x195  x196  x197 
 x198  x199  x200 
End
